299 62
281 316
199 199
91 489
136 426
181 354
665 284
10 74
55 11
55 11
74 2
647 448
692 238
37 175
120 94
165 384
210 321
274 249
147 195
593 440
300 1
364 282
237 228
282 165
174 455
219 392
156 119
373 47
265 484
310 274
183 220
247 148
483 420
337 375
38 330
210 321
611 276
675 57
1 3
20 494
593 440
129 212
384 122
620 394
493 340
557 268
430 214
329 459
30 414
94 195
